(declare-const X String)
; spas\s+This\s+\x7D\x7BPassword\x3A\s+OSSProxy\x5Chome\/lordofsearch
(assert (not (str.in_re X (re.++ (str.to_re "spas") (re.+ (re.union (str.to_re " ") (str.to_re "\u{9}") (str.to_re "\u{a}") (str.to_re "\u{c}") (str.to_re "\u{d}"))) (str.to_re "This") (re.+ (re.union (str.to_re " ") (str.to_re "\u{9}") (str.to_re "\u{a}") (str.to_re "\u{c}") (str.to_re "\u{d}"))) (str.to_re "}{Password:\u{1b}") (re.+ (re.union (str.to_re " ") (str.to_re "\u{9}") (str.to_re "\u{a}") (str.to_re "\u{c}") (str.to_re "\u{d}"))) (str.to_re "OSSProxy\u{5c}home/lordofsearch\u{a}")))))
(check-sat)
